1606819
20,4,47,13,54,1,24,61,42,12,32,56,40,5,19,49,23,60,29,6,41,25,30,3,21,38,7,67,64,11,66,26,55,34,46,43,31,22,52,33,57,18,10,14,44,53,37,62,39,51,35,68,9,58,15,8,36,50,28,59,16,63,48,2,27,17,45,65